gil250_1
0 163 224 82 157 225 38 102 15 59 162 243 3 190 112 73 198 191 19 185 72 21 138 145 115 154 244 108 155 202 139 142 232 70 99 100 186 81 4 34 95 156 239 192 184 218 149 86 247 88 212 45 187 98 117 92 178 227 20 109 110 60 158 97 132 201 245 24 40 17 175 168 66 103 113 42 10 131 214 57 125 2 170 114 9 153 150 220 36 0 64 217 206 65 183 58 189 121 248 89 167 13 26 230 148 101 193 249 62 237 69 177 146 135 16 37 104 141 25 246 140 164 160 28 182 180 63 216 179 48 196 174 143 128 161 77 91 46 0